 vasp.6.4.1 05Apr23 (build Jun 05 2023 04:03:17) complex

 executed on      MichiganTechHPC date 2023.06.19  17:45:13

 INCAR:
   ISPIN = 2
   ICHARG = 11
   LORBIT = 11
   MAGMOM = 4*3.0 4*-3.0
   ENCUT = 700
   EDIFF = 1.0E-7
   NELM = 100
   ISMEAR = 0
   SIGMA = 0.02
   NPAR = 8
   GGA = PE

 POTCAR:    PAW_PBE Mn 06Sep2000
 POTCAR:    PAW_PBE Te 08Apr2002
 POTCAR:    PAW_PBE Mn 06Sep2000
   VRHFIN =Mn: d6 s1

   TITEL  = PAW_PBE Mn 06Sep2000
   POMASS =   54.938; ZVAL   =    7.000    mass and valenz
   ENMAX  =  269.864; ENMIN  =  202.398 eV

 POTCAR:    PAW_PBE Te 08Apr2002
   VRHFIN =Te: s2p4

   TITEL  = PAW_PBE Te 08Apr2002
   POMASS =  127.600; ZVAL   =    6.000    mass and valenz
   ENMAX  =  174.982; ENMIN  =  131.236 eV

  PAW_PBE Mn 06Sep2000                  :
  PAW_PBE Te 08Apr2002                  :

 POSCAR: Mn4 Te4
  positions in direct lattice
  velocities in cartesian coordinates
 exchange correlation table for  LEXCH =        8
   RHO(1)=    0.500       N(1)  =     2000
   RHO(2)=  100.500       N(2)  =     4000

 ion  position               nearest neighbor table
   1  0.000  0.000  0.000-   5 2.60   8 2.60   7 2.60   6 2.60
   2  0.000  0.500  0.500-   6 2.60   7 2.60   5 2.60   8 2.60
   3  0.500  0.000  0.500-   6 2.60   7 2.60   5 2.60   8 2.60
   4  0.500  0.500  0.000-   5 2.60   8 2.60   7 2.60   6 2.60
   5  0.750  0.250  0.750-   1 2.60   4 2.60   3 2.60   2 2.60
   6  0.750  0.750  0.250-   2 2.60   3 2.60   1 2.60   4 2.60
   7  0.250  0.250  0.250-   2 2.60   3 2.60   1 2.60   4 2.60
   8  0.250  0.750  0.750-   1 2.60   4 2.60   3 2.60   2 2.60

  LATTYP: Found a simple cubic cell.
 ALAT       =     6.0067168279

  Lattice vectors:

 A1 = (   6.0067168279,  -0.0000000000,   0.0000000000)
 A2 = (   0.0000000000,   6.0067168279,   0.0000000000)
 A3 = (   0.0000000000,   0.0000000000,   6.0067168279)

Analysis of symmetry for initial positions (statically):
 Subroutine PRICEL returns following result:

  LATTYP: Found a face centered cubic cell.
 ALAT       =     6.0067168279

[...]

   4 primitive cells build up your supercell.

 Routine SETGRP: Setting up the symmetry group for a
 simple cubic supercell.

 Subroutine GETGRP returns: Found 24 space group operations
 (whereof 24 operations were pure point group operations)
 out of a pool of 48 trial point group operations.

The static configuration has the point symmetry T_d .

Analysis of symmetry for dynamics (positions and initial velocities):
 Subroutine PRICEL returns following result:

[...]

The dynamic configuration has the point symmetry T_d .

Analysis of structural, dynamic, and magnetic symmetry:
 Subroutine PRICEL returns following result:

  LATTYP: Found a face centered cubic cell.
 ALAT       =     6.0067168279

  Lattice vectors:

 A1 = (   3.0033584139,  -3.0033584139,   0.0000000000)
 A2 = (   3.0033584139,   0.0000000000,   3.0033584139)
 A3 = (   0.0000000000,  -3.0033584139,   3.0033584139)

   4 primitive cells build up your supercell.

 Routine SETGRP: Setting up the symmetry group for a
 simple cubic supercell.

 Subroutine GETGRP returns: Found 24 space group operations
 (whereof 24 operations were pure point group operations)
 out of a pool of 48 trial point group operations.

The overall configuration has the point symmetry T_d .

 Subroutine INISYM returns: Found 24 space group operations
 (whereof 24 operations are pure point group operations),
 and found     4 'primitive' translations

                                     Primitive cell

  volume of cell :      54.1816

  direct lattice vectors                    reciprocal lattice vectors
     3.003358414 -3.003358414  0.000000000     0.166480297 -0.166480297 -0.166480297
     3.003358414  0.000000000  3.003358414     0.166480297  0.166480297  0.166480297
     0.000000000 -3.003358414  3.003358414    -0.166480297 -0.166480297  0.166480297

  length of vectors
     4.247390202  4.247390202  4.247390202     0.288352332  0.288352332  0.288352332

  position of ions in fractional coordinates (direct lattice)
     0.000000000  0.000000000  0.000000000
     0.750000000  0.750000000  0.750000000

  ion indices of the primitive-cell ions
   primitive index   ion index
                 1           1
                 2           5

 KPOINTS: K-Points for bandstructure G-X-M-R-M

Interpolating k-points between supplied coordinates.

 Line segments in fractional coordinates (reciprocal lattice):
    0.000000  0.000000  0.000000  ...  0.000000  0.500000  0.000000
    0.000000  0.500000  0.000000  ...  0.500000  0.500000  0.000000
    0.500000  0.500000  0.000000  ...  0.500000  0.500000  0.500000
    0.500000  0.500000  0.500000  ...  0.000000  0.000000  0.000000
    0.000000  0.000000  0.000000  ...  0.500000  0.500000  0.000000

 Generated    20 points on each line segment, for a total of    100 k-points:

 Following reciprocal coordinates:
            Coordinates               Weight
  0.000000  0.000000  0.000000      0.010000
  0.000000  0.026316  0.000000      0.010000
  0.000000  0.052632  0.000000      0.010000
  0.000000  0.078947  0.000000      0.010000
  0.000000  0.105263  0.000000      0.010000
  0.000000  0.131579  0.000000      0.010000
  0.000000  0.157895  0.000000      0.010000
  0.000000  0.184211  0.000000      0.010000
  0.000000  0.210526  0.000000      0.010000
  0.000000  0.236842  0.000000      0.010000
  0.000000  0.263158  0.000000      0.010000
  0.000000  0.289474  0.000000      0.010000
  0.000000  0.315789  0.000000      0.010000
  0.000000  0.342105  0.000000      0.010000
  0.000000  0.368421  0.000000      0.010000
  0.000000  0.394737  0.000000      0.010000
  0.000000  0.421053  0.000000      0.010000
  0.000000  0.447368  0.000000      0.010000
  0.000000  0.473684  0.000000      0.010000
  0.000000  0.500000  0.000000      0.010000
  0.000000  0.500000  0.000000      0.010000
  0.026316  0.500000  0.000000      0.010000
  0.052632  0.500000  0.000000      0.010000
  0.078947  0.500000  0.000000      0.010000
  0.105263  0.500000  0.000000      0.010000
  0.131579  0.500000  0.000000      0.010000
  0.157895  0.500000  0.000000      0.010000
  0.184211  0.500000  0.000000      0.010000
  0.210526  0.500000  0.000000      0.010000
  0.236842  0.500000  0.000000      0.010000
  0.263158  0.500000  0.000000      0.010000
  0.289474  0.500000  0.000000      0.010000
  0.315789  0.500000  0.000000      0.010000
  0.342105  0.500000  0.000000      0.010000
  0.368421  0.500000  0.000000      0.010000
  0.394737  0.500000  0.000000      0.010000
  0.421053  0.500000  0.000000      0.010000
  0.447368  0.500000  0.000000      0.010000
  0.473684  0.500000  0.000000      0.010000
  0.500000  0.500000  0.000000      0.010000
  0.500000  0.500000  0.000000      0.010000
  0.500000  0.500000  0.026316      0.010000
  0.500000  0.500000  0.052632      0.010000
  0.500000  0.500000  0.078947      0.010000
  0.500000  0.500000  0.105263      0.010000
  0.500000  0.500000  0.131579      0.010000
  0.500000  0.500000  0.157895      0.010000
  0.500000  0.500000  0.184211      0.010000
  0.500000  0.500000  0.210526      0.010000
  0.500000  0.500000  0.236842      0.010000
  0.500000  0.500000  0.263158      0.010000
  0.500000  0.500000  0.289474      0.010000
  0.500000  0.500000  0.315789      0.010000
  0.500000  0.500000  0.342105      0.010000
  0.500000  0.500000  0.368421      0.010000
  0.500000  0.500000  0.394737      0.010000
  0.500000  0.500000  0.421053      0.010000
  0.500000  0.500000  0.447368      0.010000
  0.500000  0.500000  0.473684      0.010000
  0.500000  0.500000  0.500000      0.010000
[...]
  0.131579  0.131579  0.000000      0.010000
  0.157895  0.157895  0.000000      0.010000
  0.184211  0.184211  0.000000      0.010000
  0.210526  0.210526  0.000000      0.010000
  0.236842  0.236842  0.000000      0.010000
  0.263158  0.263158  0.000000      0.010000
  0.289474  0.289474  0.000000      0.010000
  0.315789  0.315789  0.000000      0.010000
  0.342105  0.342105  0.000000      0.010000
  0.368421  0.368421  0.000000      0.010000
  0.394737  0.394737  0.000000      0.010000
  0.421053  0.421053  0.000000      0.010000
  0.447368  0.447368  0.000000      0.010000
  0.473684  0.473684  0.000000      0.010000
  0.500000  0.500000  0.000000      0.010000

 Following cartesian coordinates:
            Coordinates               Weight
  0.000000  0.000000  0.000000      0.010000
  0.000000  0.004381  0.000000      0.010000
  0.000000  0.008762  0.000000      0.010000
  0.000000  0.013143  0.000000      0.010000
  0.000000  0.017524  0.000000      0.010000
  0.000000  0.021905  0.000000      0.010000
  0.000000  0.026286  0.000000      0.010000
  0.000000  0.030667  0.000000      0.010000
  0.000000  0.035048  0.000000      0.010000
  0.000000  0.039430  0.000000      0.010000
  0.000000  0.043811  0.000000      0.010000
  0.000000  0.048192  0.000000      0.010000
  0.000000  0.052573  0.000000      0.010000
  0.000000  0.056954  0.000000      0.010000
  0.000000  0.061335  0.000000      0.010000
  0.000000  0.065716  0.000000      0.010000
  0.000000  0.070097  0.000000      0.010000
  0.000000  0.074478  0.000000      0.010000
  0.000000  0.078859  0.000000      0.010000
  0.000000  0.083240  0.000000      0.010000
  0.000000  0.083240  0.000000      0.010000
  0.004381  0.083240  0.000000      0.010000
  0.008762  0.083240  0.000000      0.010000
  0.013143  0.083240  0.000000      0.010000
  0.017524  0.083240  0.000000      0.010000
  0.021905  0.083240  0.000000      0.010000
  0.026286  0.083240  0.000000      0.010000
  0.030667  0.083240  0.000000      0.010000
  0.035048  0.083240  0.000000      0.010000
  0.039430  0.083240  0.000000      0.010000
  0.043811  0.083240  0.000000      0.010000
  0.048192  0.083240  0.000000      0.010000
  0.052573  0.083240  0.000000      0.010000
  0.056954  0.083240  0.000000      0.010000
  0.061335  0.083240  0.000000      0.010000
  0.065716  0.083240  0.000000      0.010000
  0.070097  0.083240  0.000000      0.010000
  0.074478  0.083240  0.000000      0.010000
  0.078859  0.083240  0.000000      0.010000
  0.083240  0.083240  0.000000      0.010000
  0.083240  0.083240  0.000000      0.010000
  0.083240  0.083240  0.004381      0.010000
  0.083240  0.083240  0.008762      0.010000
  0.083240  0.083240  0.013143      0.010000
  0.083240  0.083240  0.017524      0.010000
  0.083240  0.083240  0.021905      0.010000
  0.083240  0.083240  0.026286      0.010000
  0.083240  0.083240  0.030667      0.010000
  0.083240  0.083240  0.035048      0.010000
  0.083240  0.083240  0.039430      0.010000
  0.083240  0.083240  0.043811      0.010000
  0.083240  0.083240  0.048192      0.010000
  0.083240  0.083240  0.052573      0.010000
  0.083240  0.083240  0.056954      0.010000
  0.083240  0.083240  0.061335      0.010000
  0.083240  0.083240  0.065716      0.010000
  0.083240  0.083240  0.070097      0.010000
  0.083240  0.083240  0.074478      0.010000
  0.083240  0.083240  0.078859      0.010000
  0.083240  0.083240  0.083240      0.010000
[...]
  0.021905  0.021905  0.000000      0.010000
  0.026286  0.026286  0.000000      0.010000
[...]
   1.50167921  4.50503762  4.50503762

 k-point   1 :   0.0000 0.0000 0.0000  plane waves:    9045
 k-point   2 :   0.0000 0.0263 0.0000  plane waves:    9069
 k-point   3 :   0.0000 0.0526 0.0000  plane waves:    9082
 k-point   4 :   0.0000 0.0789 0.0000  plane waves:    9082
 k-point   5 :   0.0000 0.1053 0.0000  plane waves:    9090
 k-point   6 :   0.0000 0.1316 0.0000  plane waves:    9098
 k-point   7 :   0.0000 0.1579 0.0000  plane waves:    9082
 k-point   8 :   0.0000 0.1842 0.0000  plane waves:    9074
 k-point   9 :   0.0000 0.2105 0.0000  plane waves:    9078
 k-point  10 :   0.0000 0.2368 0.0000  plane waves:    9126
 k-point  11 :   0.0000 0.2632 0.0000  plane waves:    9118
 k-point  12 :   0.0000 0.2895 0.0000  plane waves:    9102
 k-point  13 :   0.0000 0.3158 0.0000  plane waves:    9094
 k-point  14 :   0.0000 0.3421 0.0000  plane waves:    9094
 k-point  15 :   0.0000 0.3684 0.0000  plane waves:    9094
 k-point  16 :   0.0000 0.3947 0.0000  plane waves:    9090
 k-point  17 :   0.0000 0.4211 0.0000  plane waves:    9074
 k-point  18 :   0.0000 0.4474 0.0000  plane waves:    9078
 k-point  19 :   0.0000 0.4737 0.0000  plane waves:    9086
 k-point  20 :   0.0000 0.5000 0.0000  plane waves:    9074
 k-point  21 :   0.0000 0.5000 0.0000  plane waves:    9074
 k-point  22 :   0.0263 0.5000 0.0000  plane waves:    9086
 k-point  23 :   0.0526 0.5000 0.0000  plane waves:    9078
 k-point  24 :   0.0789 0.5000 0.0000  plane waves:    9086
 k-point  25 :   0.1053 0.5000 0.0000  plane waves:    9090
 k-point  26 :   0.1316 0.5000 0.0000  plane waves:    9100
 k-point  27 :   0.1579 0.5000 0.0000  plane waves:    9106
 k-point  28 :   0.1842 0.5000 0.0000  plane waves:    9102
 k-point  29 :   0.2105 0.5000 0.0000  plane waves:    9102
 k-point  30 :   0.2368 0.5000 0.0000  plane waves:    9108
 k-point  31 :   0.2632 0.5000 0.0000  plane waves:    9112
 k-point  32 :   0.2895 0.5000 0.0000  plane waves:    9120
 k-point  33 :   0.3158 0.5000 0.0000  plane waves:    9116
 k-point  34 :   0.3421 0.5000 0.0000  plane waves:    9120
 k-point  35 :   0.3684 0.5000 0.0000  plane waves:    9124
 k-point  36 :   0.3947 0.5000 0.0000  plane waves:    9128
 k-point  37 :   0.4211 0.5000 0.0000  plane waves:    9124
 k-point  38 :   0.4474 0.5000 0.0000  plane waves:    9134
 k-point  39 :   0.4737 0.5000 0.0000  plane waves:    9126
 k-point  40 :   0.5000 0.5000 0.0000  plane waves:    9124
 k-point  41 :   0.5000 0.5000 0.0000  plane waves:    9124
 k-point  42 :   0.5000 0.5000 0.0263  plane waves:    9120
 k-point  43 :   0.5000 0.5000 0.0526  plane waves:    9144
 k-point  44 :   0.5000 0.5000 0.0789  plane waves:    9156
 k-point  45 :   0.5000 0.5000 0.1053  plane waves:    9140
 k-point  46 :   0.5000 0.5000 0.1316  plane waves:    9140
 k-point  47 :   0.5000 0.5000 0.1579  plane waves:    9128
 k-point  48 :   0.5000 0.5000 0.1842  plane waves:    9140
 k-point  49 :   0.5000 0.5000 0.2105  plane waves:    9124
 k-point  50 :   0.5000 0.5000 0.2368  plane waves:    9136
 k-point  51 :   0.5000 0.5000 0.2632  plane waves:    9144
 k-point  52 :   0.5000 0.5000 0.2895  plane waves:    9124
 k-point  53 :   0.5000 0.5000 0.3158  plane waves:    9124
 k-point  54 :   0.5000 0.5000 0.3421  plane waves:    9116
 k-point  55 :   0.5000 0.5000 0.3684  plane waves:    9136
 k-point  56 :   0.5000 0.5000 0.3947  plane waves:    9136
 k-point  57 :   0.5000 0.5000 0.4211  plane waves:    9136
 k-point  58 :   0.5000 0.5000 0.4474  plane waves:    9148
 k-point  59 :   0.5000 0.5000 0.4737  plane waves:    9104
 k-point  60 :   0.5000 0.5000 0.5000  plane waves:    9104
[...]
 k-point  86 :   0.1316 0.1316 0.0000  plane waves:    9109
 k-point  87 :   0.1579 0.1579 0.0000  plane waves:    9121
 k-point  88 :   0.1842 0.1842 0.0000  plane waves:    9132
 k-point  89 :   0.2105 0.2105 0.0000  plane waves:    9114
 k-point  90 :   0.2368 0.2368 0.0000  plane waves:    9108
 k-point  91 :   0.2632 0.2632 0.0000  plane waves:    9106
 k-point  92 :   0.2895 0.2895 0.0000  plane waves:    9124
 k-point  93 :   0.3158 0.3158 0.0000  plane waves:    9114
 k-point  94 :   0.3421 0.3421 0.0000  plane waves:    9100
 k-point  95 :   0.3684 0.3684 0.0000  plane waves:    9124
 k-point  96 :   0.3947 0.3947 0.0000  plane waves:    9132
 k-point  97 :   0.4211 0.4211 0.0000  plane waves:    9130
 k-point  98 :   0.4474 0.4474 0.0000  plane waves:    9126
 k-point  99 :   0.4737 0.4737 0.0000  plane waves:    9126
 k-point 100 :   0.5000 0.5000 0.0000  plane waves:    9124

 maximum and minimum number of plane-waves per node :      2320     2244

 maximum number of plane-waves:      9162
 maximum index in each direction:
   IXMAX=   12   IYMAX=   12   IZMAX=   12
   IXMIN=  -13   IYMIN=  -13   IZMIN=  -13

 parallel 3D FFT for wavefunctions:
    minimum data exchange during FFTs selected (reduces bandwidth)
 parallel 3D FFT for charge:
    minimum data exchange during FFTs selected (reduces bandwidth)

 initial charge density was supplied:
 number of electron      52.0000003 magnetization      11.9999757
 keeping initial charge density in first step

 Maximum index for augmentation-charges          749 (set IRDMAX)

 First call to EWALD:  gamma=   0.295
 Maximum number of real-space cells 3x 3x 3
 Maximum number of reciprocal cells 3x 3x 3

--------------------------------------- Ionic step        1  -------------------------------------------

--------------------------------------- Iteration      1(   1)  ---------------------------------------

 eigenvalue-minimisations  : 14104
 total energy-change (2. order) :-0.4112134E+02  (-0.2621106E+02)
 number of electron      52.0000003 magnetization      11.9999757
 augmentation part       52.0000003 magnetization      11.9999757

 Free energy of the ion-electron system (eV)
  alpha Z        PSCENC =        79.84661129
  Ewald energy   TEWEN  =     -2191.47868903
  -Hartree energ DENC   =      -586.63109321
  -exchange      EXHF   =         0.00000000
  -V(xc)+E(xc)   XCENC  =      -155.23070574
  PAW double counting   =      3762.07117295    -3552.45888436
  entropy T*S    EENTRO =        -0.00221644
  eigenvalues    EBANDS =        42.66102297
  atomic energy  EATOM  =      2560.10143906
  Solvation  Ediel_sol  =         0.00000000
  free energy    TOTEN  =       -41.12134251 eV

  energy without entropy =      -41.11912607  energy(sigma->0) =      -41.12023429

[...]

--------------------------------------- Iteration      1( 100)  ---------------------------------------

 eigenvalue-minimisations  :  7184
 total energy-change (2. order) :-0.2258773E-05  (-0.2258531E-05)
 number of electron      52.0000003 magnetization      11.9999757
 augmentation part       52.0000003 magnetization      11.9999757

 Free energy of the ion-electron system (eV)
  alpha Z        PSCENC =        79.84661129
  Ewald energy   TEWEN  =     -2191.47868903
  -Hartree energ DENC   =      -586.63109321
  -exchange      EXHF   =         0.00000000
  -V(xc)+E(xc)   XCENC  =      -155.23070574
  PAW double counting   =      3762.07117295    -3552.45888436
  entropy T*S    EENTRO =        -0.00230177
  eigenvalues    EBANDS =        37.99821189
  atomic energy  EATOM  =      2560.10143906
  Solvation  Ediel_sol  =         0.00000000
  free energy    TOTEN  =       -45.78423893 eV

  energy without entropy =      -45.78193716  energy(sigma->0) =      -45.78308804

 average (electrostatic) potential at core
  the test charge radii are     1.0210  1.1897
  (the norm of the test charge is              1.0000)
       1 -45.0534       2 -45.0534       3 -45.0534       4 -45.0534       5 -90.0149
       6 -90.0149       7 -90.0149       8 -90.0149

 E-fermi :   5.1402     XC(G=0):  -9.2794     alpha+bet : -9.7368

 Fermi energy:         5.1401518112

 spin component 1

 k-point     1 :       0.0000    0.0000    0.0000
  band No.  band energies     occupation
      1      -7.6526      1.00000
      2      -6.5018      1.00000
      3      -6.5018      1.00000
      4      -6.5018      1.00000
      5      -0.5187      1.00000
      6      -0.5187      1.00000
      7      -0.5187      1.00000
      8       1.0791      1.00000
      9       1.0791      1.00000
     10       1.0791      1.00000
     11       1.5001      1.00000
     12       1.5001      1.00000
     13       1.5001      1.00000
     14       1.5001      1.00000
     15       1.5001      1.00000
     16       1.5001      1.00000
     17       2.5120      1.00000
     18       2.5120      1.00000
     19       2.5820      1.00000
     20       2.5820      1.00000
     21       2.5820      1.00000
     22       2.6469      1.00000
     23       2.6469      1.00000
     24       2.6469      1.00000
     25       2.7863      1.00000
     26       2.7863      1.00000
     27       2.7863      1.00000
     28       3.4217      1.00000
     29       3.4217      1.00000
     30       3.4217      1.00000
     31       3.4217      1.00000
     32       3.4217      1.00000

[...]

 k-point   100 :       0.5000    0.5000    0.0000
  band No.  band energies     occupation
      1      -6.8237      1.00000
      2      -6.8237      1.00000
      3      -6.8237      1.00000
      4      -6.8237      1.00000
      5       0.1006      1.00000
      6       0.1006      1.00000
      7       0.1006      1.00000
      8       0.1006      1.00000
      9       0.7784      1.00000
     10       0.7784      1.00000
     11       0.7784      1.00000
     12       0.7784      1.00000
     13       1.2763      1.00000
     14       1.2763      1.00000
     15       1.2763      1.00000
     16       1.2763      1.00000
     17       2.4799      1.00000
     18       2.4799      1.00000
     19       2.4799      1.00000
     20       2.4799      1.00000
     21       2.6040      1.00000
     22       2.6040      1.00000
     23       2.6040      1.00000
     24       2.6040      1.00000
     25       3.2931      1.00000
     26       3.2931      1.00000
     27       3.2931      1.00000
     28       3.2931      1.00000
     29       3.6031      1.00000
     30       3.6031      1.00000
     31       3.6031      1.00000
     32       3.6031      1.00000
 Fermi energy:         5.1401518112

 spin component 2

[...]

 k-point   100 :       0.5000    0.5000    0.0000
  band No.  band energies     occupation
      1      -6.8798      1.00000
      2      -6.8798      1.00000
      3      -6.8798      1.00000
      4      -6.8798      1.00000
      5       0.4053      1.00000
      6       0.4053      1.00000
      7       0.4053      1.00000
      8       0.4053      1.00000
      9       1.2835      1.00000
     10       1.2835      1.00000
     11       1.2835      1.00000
     12       1.2835      1.00000
     13       2.1587      1.00000
     14       2.1587      1.00000
     15       2.1587      1.00000
     16       2.1587      1.00000
     17       5.0635      1.00000
     18       5.0635      1.00000
     19       5.0635      1.00000
     20       5.0635      1.00000
     21       5.1645      0.04247
     22       5.1645      0.04247
     23       5.1645      0.04247
     24       5.1645      0.04247
     25       5.6628      0.00000
     26       5.6628      0.00000
     27       5.6628      0.00000
     28       5.6628      0.00000
     29       5.8555      0.00000
     30       5.8555      0.00000
     31       5.8555      0.00000
     32       5.8555      0.00000

 soft charge-density along one line, spin component           1
         0         1         2         3         4         5         6         7         8         9
 total charge-density along one line

 soft charge-density along one line, spin component           2
         0         1         2         3         4         5         6         7         8         9
 total charge-density along one line

------------------------ aborting loop EDIFF was not reached (unconverged)  ----------------------------

 total charge

# of ion       s       p       d       tot
    1        0.287   0.247   5.084   5.618
    2        0.287   0.247   5.084   5.618
    3        0.287   0.247   5.084   5.618
    4        0.287   0.247   5.084   5.618
    5        1.343   2.051   0.063   3.457
    6        1.343   2.051   0.063   3.457
    7        1.343   2.051   0.063   3.457
    8        1.343   2.051   0.063   3.457
tot          6.517   9.192  20.588  36.297

 magnetization (x)

[...]

  FORCE on cell =-STRESS in cart. coord.  units (eV):
  Direction    XX          YY          ZZ          XY          YZ          ZX
  Alpha Z    79.84661    79.84661    79.84661
  Ewald    -730.49413  -730.49413  -730.49413    -0.00000     0.00000     0.00000
  Hartree   195.76987   195.76987   195.76987    -0.00000    -0.00000    -0.00000
  E(xc)    -227.86668  -227.86668  -227.86668    -0.00000    -0.00000     0.00000
  Local    -155.27454  -155.27454  -155.27454    -0.00000    -0.00000     0.00000
  n-local   339.61283   341.05161   344.59448     0.00777     0.50530     0.64939
  augment    17.01762    17.01762    17.01762     0.00000     0.00000    -0.00000
  Kinetic   478.90467   476.01436   481.32560     0.74144     1.63786     2.44814
  Fock        0.00000     0.00000     0.00000     0.00000     0.00000     0.00000
  Total      -0.50008    -0.50008    -0.50008     0.00000    -0.00000     0.00000
  in kB      -3.69689    -3.69689    -3.69689     0.00000    -0.00000     0.00000

 VOLUME and BASIS-vectors are now :
  energy-cutoff  :      700.00
  volume of cell :      216.73
      direct lattice vectors                 reciprocal lattice vectors
     6.006716828 -0.000000000  0.000000000     0.166480297 -0.000000000  0.000000000
     0.000000000  6.006716828  0.000000000     0.000000000  0.166480297  0.000000000
     0.000000000  0.000000000  6.006716828    -0.000000000 -0.000000000  0.166480297

  length of vectors
     6.006716828  6.006716828  6.006716828     0.166480297  0.166480297  0.166480297

 FORCES acting on ions
    electron-ion (+dipol)            ewald-force                    non-local-force                 convergence-correction
   -.887E-13 0.825E-14 -.104E-13   0.711E-14 0.142E-13 0.426E-13   -.664E-18 0.192E-17 -.130E-17   -.495E-13 0.277E-13 -.966E-13
   -.875E-13 -.530E-13 -.543E-13   0.711E-14 0.142E-13 0.426E-13   -.153E-17 0.167E-17 0.150E-18   -.251E-13 0.835E-13 0.115E-12
   -.112E-12 0.109E-13 -.138E-11   0.711E-14 0.142E-13 0.426E-13   -.109E-17 0.241E-17 -.347E-17   0.211E-12 -.320E-13 0.995E-13
   -.137E-12 -.114E-12 -.152E-11   0.711E-14 0.142E-13 0.426E-13   0.180E-17 0.493E-20 0.228E-17   0.206E-12 0.497E-13 -.520E-13
   0.123E-12 -.102E-11 0.541E-12   -.416E-14 -.144E-13 -.422E-13   0.455E-18 -.127E-17 0.219E-18   -.865E-14 -.536E-13 0.215E-13
   0.121E-12 0.145E-12 -.733E-12   -.409E-14 -.132E-13 -.430E-13   -.149E-18 -.567E-18 0.137E-18   -.116E-13 -.149E-13 -.128E-13
   0.769E-13 0.173E-12 0.102E-12   -.999E-14 -.152E-13 -.434E-13   0.430E-18 -.421E-18 -.190E-18   0.391E-14 -.160E-13 -.237E-13
   0.781E-13 0.334E-12 0.150E-12   -.992E-14 -.140E-13 -.418E-13   0.105E-17 -.570E-18 0.525E-18   0.291E-14 -.733E-15 0.221E-15
   -.272E-13 -.516E-12 -.290E-11   0.258E-15 -.837E-16 0.655E-16   0.309E-18 0.317E-17 -.166E-17   0.330E-12 0.437E-13 0.512E-13

 POSITION                                       TOTAL-FORCE (eV/Angst)
      0.00000      0.00000      0.00000        -0.000000      0.000000     -0.000000
      0.00000      3.00336      3.00336         0.000000      0.000000      0.000000
      3.00336     -0.00000      3.00336         0.000000     -0.000000      0.000000
      3.00336      3.00336      0.00000        -0.000000      0.000000     -0.000000
      4.50504      1.50168      4.50504        -0.000000     -0.000000      0.000000
      4.50504      4.50504      1.50168        -0.000000     -0.000000      0.000000
      1.50168      1.50168      1.50168        -0.000000     -0.000000      0.000000
      1.50168      4.50504      4.50504         0.000000     -0.000000     -0.000000
    total drift:                                0.000000     -0.000000     -0.000000

  FREE ENERGIE OF THE ION-ELECTRON SYSTEM (eV)
  free  energy   TOTEN  =       -45.78423893 eV

  energy  without entropy=      -45.78193716  energy(sigma->0) =      -45.78308804

 writing wavefunctions

 total charge

[...]

 magnetization (x)

# of ion       s       p       d       tot
    1        0.040   0.026   2.910   2.977
    2        0.040   0.026   2.910   2.977
    3        0.040   0.026   2.910   2.977
    4        0.040   0.026   2.910   2.977
    5       -0.001  -0.140   0.006  -0.135
    6       -0.001  -0.140   0.006  -0.135
    7       -0.001  -0.140   0.006  -0.135
    8       -0.001  -0.140   0.006  -0.135
tot          0.156  -0.455  11.667  11.368